\ This file was automatically generated by Zimpl
\ var x1 <= 7;
\ var x2 <= 6;
\ maximize Z:     2*x1 + 3*x2;
\ subto c1:     1*x1 + 1*x2 <= 10;
\ subto c2:     1*x1 - 1*x2 <= 6;
\ subto canalizado1:     1*x1 >= 1;
\ subto canalizado2:     1*x2 >= -2;
\Problem name: pp
Maximize
 Z:  +2 x1 +3 x2
Subject to
 c1_1:
  + x2 + x1 <= 10
 c2_1:
  - x2 + x1 <= 6
 canalizado1_1:
  + x1 >= 1
 canalizado2_1:
  + x2 >= -2
Bounds
 0 <= x1 <= 7
 0 <= x2 <= 6
End
